<?xml version = "1.0" encoding="UTF-8" standalone="yes"?>
<CPLEXSolution version="1.2">
 <header
   problemName="/home/jiricermak/workspace/gtlibrary/SSEIter.lp"
   objectiveValue="87"
   solutionTypeValue="1"
   solutionTypeString="basic"
   solutionStatusValue="1"
   solutionStatusString="optimal"
   solutionMethodString="dual"
   primalFeasible="1"
   dualFeasible="1"
   simplexIterations="0"
   writeLevel="1"/>
 <quality
   epRHS="1e-06"
   epOpt="1e-06"
   maxPrimalInfeas="0"
   maxDualInfeas="0"
   maxPrimalResidual="0"
   maxDualResidual="0"
   maxX="1"
   maxPi="87"
   maxSlack="50"
   maxRedCost="87"
   kappa="3.76725460122699"/>
 <linearConstraints>
  <constraint name="c1" index="0" status="BS" slack="0" dual="-0"/>
  <constraint name="c1" index="1" status="LL" slack="0" dual="87"/>
  <constraint name="c3" index="2" status="LL" slack="0" dual="87"/>
  <constraint name="c5" index="3" status="LL" slack="0" dual="53"/>
  <constraint name="c9" index="4" status="BS" slack="-50" dual="0"/>
  <constraint name="c11" index="5" status="BS" slack="0" dual="0"/>
  <constraint name="c17" index="6" status="BS" slack="-50" dual="0"/>
  <constraint name="c19" index="7" status="BS" slack="-17" dual="0"/>
  <constraint name="c21" index="8" status="BS" slack="0" dual="0"/>
  <constraint name="c23" index="9" status="BS" slack="0" dual="0"/>
  <constraint name="c25" index="10" status="LL" slack="0" dual="-0"/>
  <constraint name="c27" index="11" status="LL" slack="0" dual="0"/>
  <constraint name="c28" index="12" status="BS" slack="-0.8" dual="0"/>
 </linearConstraints>
 <variables>
  <variable name="_lPl0._((Pl0,_1,_0)),Pl1._((Pl1,_3,_0))g#3" index="0" status="BS" value="1" reducedCost="-0"/>
  <variable name="_lPl0._((Pl0,_1,_0)),Pl1._((Pl1,_3,_1))g#4" index="1" status="LL" value="0" reducedCost="-42"/>
  <variable name="_lPl0._((Pl0,_1,_1)),Pl1._((Pl1,_3,_0))g#5" index="2" status="LL" value="0" reducedCost="-45"/>
  <variable name="_lPl0._((Pl0,_1,_1)),Pl1._((Pl1,_3,_1))g#6" index="3" status="BS" value="0" reducedCost="-0"/>
  <variable name="_lPl0._(),Pl1._()g#0" index="4" status="UL" value="1" reducedCost="87"/>
  <variable name="_lPl0._((Pl0,_1,_0)),Pl1._()g#1" index="5" status="BS" value="1" reducedCost="-0"/>
  <variable name="_lPl0._((Pl0,_1,_1)),Pl1._()g#2" index="6" status="LL" value="0" reducedCost="-34"/>
  <variable name="_lv,Pl1._((Pl1,_3,_0))g#8" index="7" status="LL" value="0" reducedCost="-0"/>
  <variable name="_lv,Pl1._((Pl1,_3,_1))g#9" index="8" status="BS" value="0" reducedCost="-0"/>
  <variable name="_lIS.(Pl1).Pl1._(),Pl1._((Pl1,_3,_0))g#11" index="9" status="BS" value="0" reducedCost="-0"/>
  <variable name="_lIS.(Pl1).Pl1._(),Pl1._((Pl1,_3,_1))g#12" index="10" status="LL" value="0" reducedCost="-0"/>
 </variables>
</CPLEXSolution>
